(define-fun-rec
  u5
  ((x Int) (y Int)) Int (ite (<= x 0) y (* (u5 (- x 1) y) x)))
(define-fun
  v5
  ((x Int)) Int (u5 x 1))
(define-fun-rec
  u2
  ((x Int) (y Int)) Int (ite (<= x 0) y (* (u2 (- x 1) y) x)))
(define-fun
  v2
  ((x Int)) Int (u2 x 1))
(define-fun
  g5
  ((x Int)) Int x)
(define-fun
  g4
  ((x Int)) Int x)
(define-fun
  g3
  ((x Int)) Int (- x 1))
(define-fun
  g2
  ((x Int)) Int x)
(define-fun
  g1
  ((x Int)) Int x)
(define-fun
  g0
  ((x Int)) Int x)
(define-fun
  f4
  ((x Int)) Int (+ x x))
(define-fun-rec
  u4
  ((x Int) (y Int)) Int (ite (<= x 0) y (f4 (u4 (- x 1) y))))
(define-fun
  v4
  ((x Int)) Int (u4 x 1))
(define-fun
  f3
  ((x Int) (y Int)) Int (+ 1 (* x y)))
(define-fun-rec
  u3
  ((x Int) (y Int)) Int (ite (<= x 0) y (f3 (u3 (- x 1) y) x)))
(define-fun
  v3
  ((x Int)) Int (u3 (g3 x) 1))
(define-fun
  fast
  ((x Int)) Int (div (+ (* (+ (* (v3 x) x) 1) (v4 x)) 1) (v5 x)))
(define-fun
  f1
  ((x Int) (y Int)) Int (+ 1 (* x y)))
(define-fun-rec
  u1
  ((x Int) (y Int)) Int (ite (<= x 0) y (f1 (u1 (- x 1) y) x)))
(define-fun
  v1
  ((x Int)) Int (u1 x 1))
(define-fun
  f0
  ((x Int)) Int (+ x x))
(define-fun-rec
  u0
  ((x Int) (y Int)) Int (ite (<= x 0) y (f0 (u0 (- x 1) y))))
(define-fun
  v0
  ((x Int)) Int (u0 x (v1 x)))
(define-fun
  small
  ((x Int)) Int (div (+ 1 (v0 x)) (v2 x)))
(assert-not
  (forall ((c Int)) (or (not (>= c 0)) (= (small c) (fast c)))))
